50
    19    82    70    90    37    67    15    86    97     6     6    22    74    69    66    76    60    67    79    17    62    52    99     4     4    15    44    88    22    91    98    10    72    52     9   100    22    13    93    81    59    28    31    65    82    93    68    56     9    44
     4     9     7    10     1     4     9     4     4     5     2     8     9     1     6     1     6     4    10     3     2     8     3    10     5     7     4     5    10     1     1     9     7    10     1     9    10     5     3     9     7     2     4     2     3     6    10     6     4     8
   707  1416  1032  1398  1296   846  1142  1300  1105  1131   775   738   722  1477  1069  1436   777  1351  1157  1365   646   856  1399  1247   881   554   747   916   845   778  1049  1554  1143  1454  1211   992  1261  1406  1503  1275   925  1392   918   763   938  1266  1479   631  1350   882
